60 60
72 51 1
56 81 1
59 61 1
66 37 1
25 83 1
99 70 1
67 91 1
50 88 1
88 60 1
52 71 1
91 33 1
72 39 1
63 57 1
68 83 1
78 36 1
80 56 1
100 66 1
46 8 1
60 100 1
14 37 1
99 37 1
84 93 1
64 76 1
58 78 1
58 68 1
85 91 1
81 63 1
64 81 1
81 62 1
98 100 1
58 63 1
33 98 1
64 67 1
22 80 1
98 74 1
62 73 1
10 35 1
56 52 1
100 48 1
53 61 1
66 63 1
54 97 1
61 82 1
57 60 1
85 53 1
63 52 1
86 78 1
72 72 1
65 55 1
84 70 1
72 86 1
99 96 1
56 69 1
66 100 1
79 6 1
87 81 1
11 45 1
72 40 1
79 86 1
86 77 1
100 100 
100 100 
100 100 
100 100 
100 100 
100 100 
100 100 
100 100 
100 100 
100 100 
100 100 
100 100 
100 100 
100 100 
100 100 
100 100 
100 100 
100 100 
100 100 
100 100 
100 100 
100 100 
100 100 
100 100 
100 100 
100 100 
100 100 
100 100 
100 100 
100 100 
100 100 
100 100 
100 100 
100 100 
100 100 
100 100 
100 100 
100 100 
100 100 
100 100 
100 100 
100 100 
100 100 
100 100 
100 100 
100 100 
100 100 
100 100 
100 100 
100 100 
100 100 
100 100 
100 100 
100 100 
100 100 
100 100 
100 100 
100 100 
100 100 
100 100 
